objective value:                      2.7465226075272
x(0,2,0)                                            1 	(obj:0)
x(1,4,0)                                            1 	(obj:0)
x(2,13,0)                                           1 	(obj:0)
x(3,1,0)                                            1 	(obj:0)
x(4,0,0)                                            1 	(obj:0)
x(13,3,0)                                           1 	(obj:0)
xc(0,9)                                             1 	(obj:0)
xc(2,12)                                            1 	(obj:0)
u(0,0)                                1.1836649340457 	(obj:0)
u(1,0)                              0.165761741939701 	(obj:0)
u(2,0)                                1.8851846803884 	(obj:0)
u(4,0)                                0.7506006822058 	(obj:0)
u(8,0)                                2.7465226075272 	(obj:0)
u(13,0)                               2.7465226075272 	(obj:0)
f(0,9,0)                                            1 	(obj:0)
f(0,9,1)                                            1 	(obj:0)
f(0,9,2)                                            1 	(obj:0)
f(0,9,3)                                            1 	(obj:0)
f(0,9,4)                                            1 	(obj:0)
f(1,4,1)                                            1 	(obj:0)
f(1,4,2)                                            1 	(obj:0)
f(1,4,3)                                            1 	(obj:0)
f(2,13,2)                                           1 	(obj:0)
f(3,1,2)                                            1 	(obj:0)
f(3,1,3)                                            1 	(obj:0)
f(4,0,1)                                            1 	(obj:0)
f(4,0,2)                                            1 	(obj:0)
f(4,0,3)                                            1 	(obj:0)
f(4,0,4)                                            1 	(obj:0)
f(13,3,2)                                           1 	(obj:0)
z_r(0,)                               2.7465226075272 	(obj:0)
z                                     2.7465226075272 	(obj:1)
